50
99.0
0 49 5.72 5.54
1 48 4.86 4.96
2 47 5.17 4.68
3 46 4.97 5.27
4 45 5.09 4.87
5 44 4.94 4.99
6 43 5.28 5.51
7 42 5.09 5.57
8 41 5.32 5.19
9 40 5.37 4.36
10 39 5.37 4.86
11 38 4.3 4.69
12 37 5.3 4.81
13 36 4.6 4.43
14 35 4.38 4.47
15 34 4.61 5.0
16 33 4.67 5.4
17 32 5.08 5.16
18 31 5.46 4.95
19 30 4.55 5.35
20 29 4.86 5.26
21 28 5.53 5.11
22 27 4.7 4.79
23 26 5.5 5.3
24 25 4.5 5.44
25 24 4.68 5.57
26 23 4.13 5.7
27 22 4.78 5.25
28 21 5.71 4.35
29 20 3.68 4.65
30 19 5.83 3.6
31 18 4.64 3.99
32 17 4.79 5.28
33 16 4.83 5.26
34 15 5.71 5.32
35 14 6.02 4.79
36 13 4.62 4.39
37 12 4.82 5.26
38 11 4.98 5.47
39 10 5.8 4.74
40 9 6.53 4.61
41 8 4.66 4.09
42 7 4.51 4.39
43 6 3.6 4.87
44 5 6.91 8.51
45 4 7.01 5.75
46 3 5.7 6.9
47 2 7.02 4.87
48 1 1.19 1.36
